COLUMNS

passenger_count
pickup_ID
dropoff_ID
request_time_sec
pickup_district
dropoff_district
LDuals
IDuals
vehicle_ID
pick_position
drop_position

REQUESTS_INFO
1      332       511       29589     87        199       118       118       1         1         3         
3      106       104       29560     178       287       161       161       25        1         2         
3      479       544       29475     52        52        298       298       66        1         2         
1      1022      98        29591     291       98        120       120       69        1         3         
1      462       486       29595     189       199       130       130       72        1         2         
1      793       559       29581     290       189       174       174       126       1         3         
3      1192      554       29600     129       189       160       160       130       1         2         
4      969       604       29585     290       189       145       145       170       1         2         
1      373       248       29604     119       266       120       120       230       1         3         
1      887       605       29593     290       189       189       189       270       1         2         
2      395       604       29572     100       189       153       153       281       1         2         
1      293       268       29591     87        299       175       175       307       1         3         
3      439       532       29558     189       199       166       166       310       1         2         
1      213       651       29527     266       189       244       244       311       1         4         
1      523       626       29573     52        189       119       119       317       1         2         
2      1420      1048      29590     129       291       151       151       336       1         2         
2      907       746       29581     290       290       235       235       367       1         2         
1      251       373       29602     127       119       146       146       369       1         3         
1      523       665       29599     52        131       87        87        371       1         2         
1      482       79        29604     189       98        116       116       392       1         3         
2      396       604       29592     119       189       129       129       401       1         2         
2      256       549       29603     87        52        124       124       409       1         3         
1      457       334       29582     52        119       184       184       471       1         3         
1      768       859       29582     290       290       167       167       493       1         2         
1      443       675       29570     168       189       163       163       510       1         2         
1      906       554       29592     290       189       172       172       593       1         3         
1      790       652       29556     290       189       189       189       603       1         2         
1      317       601       29500     277       189       341       341       618       1         2         
3      356       553       29590     119       189       164       164       626       1         2         
1      395       533       29578     100       199       163       163       697       1         2         
1      419       409       29600     168       52        145       145       711       1         2         
1      990       779       29578     290       131       142       142       716       1         3         
1      771       679       29599     290       290       148       148       723       1         2         
1      858       702       29582     290       290       172       172       743       1         2         
1      645       581       29572     280       189       126       126       760       1         4         
2      160       649       29600     54        189       140       140       769       1         3         
3      483       718       29572     189       189       162       162       779       1         2         
3      434       526       29490     52        52        268       268       786       1         2         
3      837       1056      29524     290       84        258       258       807       1         2         
3      436       529       29584     100       189       149       149       830       1         2         
2      293       175       29540     87        266       238       238       893       1         2         
1      453       272       29601     52        127       114       114       911       1         2         
2      269       718       29585     127       189       151       151       935       1         2         
1      632       557       29600     189       189       102       102       972       1         2         
3      904       291       29556     290       87        212       212       998       1         2         
3      276       232       29561     87        266       232       232       999       1         2         
3      436       529       29584     100       189       149       149       1007      1         2         
3      160       649       29600     54        189       140       140       1011      1         3         
1      325       249       29600     299       266       95        95        1030      1         2         
1      724       697       29571     290       189       157       157       1045      1         3         
3      372       232       29536     119       266       217       217       1057      1         3         
1      330       336       29583     127       277       183       183       1066      1         2         
2      838       557       29522     290       189       278       278       1104      1         2         
1      841       1011      29595     290       84        187       187       1109      1         2         
1      734       19        29576     131       98        126       126       1127      1         3         
1      842       947       29523     290       290       269       269       1135      1         2         
1      812       1045      29595     290       291       116       116       1144      1         4         
3      838       557       29522     290       189       278       278       1146      1         3         
3      442       417       29594     168       100       149       149       1148      1         3         
1      1022      720       29539     291       290       172       172       1156      1         3         
1      680       724       29601     290       290       122.5     122.5     1175      1         2         
1      1088      1169      29579     291       291       134       134       1190      1         2         
3      970       795       29582     290       290       159       159       1194      1         3         
1      608       549       29590     189       52        136       136       1208      1         2         
1      747       652       29587     290       189       170.5     170.5     1209      1         2         
2      842       745       29573     290       290       222       222       1212      1         2         
1      813       695       29587     290       189       180       180       1253      1         4         
1      813       760       29607     290       291       184       184       1253      2         5         
3      871       189       29587     291       286       131       131       1254      1         2         
1      480       567       29600     52        52        151       151       1256      1         3         
2      466       630       29508     199       189       204       204       1260      1         3         
1      583       559       29593     189       189       138       138       1268      1         2         
1      889       442       29541     290       168       234       234       1304      1         3         
1      291       171       29597     87        286       170       170       1312      1         3         
3      1047      675       29513     291       189       231       231       1318      1         2         
1      827       677       29595     291       189       110       110       1374      1         4         
2      946       968       29594     290       290       179       179       1381      1         2         
3      461       629       29609     189       189       140       140       1461      1         2         
1      351       523       29608     52        52        125       125       1484      1         3         
1      971       1529      29571     290       296       148       148       1490      1         4         
1      582       583       29610     189       189       0         0         0         0         0         
1      983       916       29610     291       291       0         0         0         0         0         
1      760       194       29610     291       207       0         0         0         0         0         
1      328       116       29611     299       9         0         0         0         0         0         
1      440       440       29611     168       168       0         0         0         0         0         
1      701       417       29611     290       100       0         0         0         0         0         
3      1271      271       29611     129       127       0         0         0         0         0         
2      1271      271       29611     129       127       0         0         0         0         0         
3      779       628       29611     131       189       0         0         0         0         0         
2      779       628       29611     131       189       0         0         0         0         0         
3      812       990       29612     290       290       0         0         0         0         0         
1      645       577       29612     280       189       0         0         0         0         0         
3      698       349       29612     189       127       0         0         0         0         0         
1      315       416       29612     277       100       0         0         0         0         0         
1      43        48        29612     9         98        0         0         0         0         0         
3      715       871       29613     131       291       0         0         0         0         0         
2      557       697       29613     189       189       0         0         0         0         0         
3      715       871       29613     131       291       0         0         0         0         0         
3      557       697       29613     189       189       0         0         0         0         0         
1      269       738       29613     127       189       0         0         0         0         0         
1      745       604       29613     290       189       0         0         0         0         0         
2      1265      1026      29614     192       291       0         0         0         0         0         
2      600       512       29614     280       199       0         0         0         0         0         
3      600       512       29614     280       199       0         0         0         0         0         
2      654       810       29614     189       290       0         0         0         0         0         
2      134       303       29614     9         299       0         0         0         0         0         
1      248       628       29614     266       189       0         0         0         0         0         
3      1265      1026      29614     192       291       0         0         0         0         0         
3      1023      1542      29615     291       296       0         0         0         0         0         
3      1023      1542      29615     291       296       0         0         0         0         0         
1      549       439       29615     52        189       0         0         0         0         0         
1      1173      720       29615     129       290       0         0         0         0         0         
1      804       693       29615     291       280       0         0         0         0         0         
2      837       649       29615     290       189       0         0         0         0         0         
1      603       760       29616     189       291       0         0         0         0         0         
1      549       33        29616     52        98        0         0         0         0         0         
1      1068      1004      29617     291       291       0         0         0         0         0         
1      386       272       29617     299       127       0         0         0         0         0         
1      858       371       29617     290       52        0         0         0         0         0         
1      1034      531       29617     84        189       0         0         0         0         0         
2      368       134       29617     299       9         0         0         0         0         0         
3      368       134       29617     299       9         0         0         0         0         0         
1      208       603       29618     286       189       0         0         0         0         0         
4      749       687       29618     290       131       0         0         0         0         0         
1      34        578       29618     98        189       0         0         0         0         0         
1      479       47        29618     52        98        0         0         0         0         0         
1      894       580       29618     291       189       0         0         0         0         0         
3      582       371       29618     189       52        0         0         0         0         0         
2      582       371       29618     189       52        0         0         0         0         0         
1      662       874       29618     131       291       0         0         0         0         0         
2      745       760       29619     290       291       0         0         0         0         0         
3      745       760       29619     290       291       0         0         0         0         0         
1      598       719       29619     189       189       0         0         0         0         0         
1      348       219       29619     299       87        0         0         0         0         0         
1      723       692       29619     290       280       0         0         0         0         0         
1      431       499       29619     52        52        0         0         0         0         0         
1      441       527       29619     168       52        0         0         0         0         0         
1      397       651       29620     168       189       0         0         0         0         0         
1      863       928       29620     290       290       0         0         0         0         0         
1      335       600       29620     119       280       0         0         0         0         0         
3      1207      1148      29620     192       291       0         0         0         0         0         
3      577       371       29620     189       52        0         0         0         0         0         
3      577       371       29620     189       52        0         0         0         0         0         
3      1207      1148      29620     192       291       0         0         0         0         0         
1      1025      781       29621     291       291       0         0         0         0         0         
1      287       117       29621     299       286       0         0         0         0         0         
1      887       606       29621     290       189       0         0         0         0         0         
2      766       968       29621     290       290       0         0         0         0         0         
1      980       1167      29621     291       291       0         0         0         0         0         
1      859       188       29622     290       286       0         0         0         0         0         
1      906       904       29622     290       290       0         0         0         0         0         
1      463       392       29622     168       52        0         0         0         0         0         
3      865       1048      29622     290       291       0         0         0         0         0         
1      21        694       29623     98        189       0         0         0         0         0         
2      1244      1046      29623     192       291       0         0         0         0         0         
1      983       675       29623     291       189       0         0         0         0         0         
3      605       415       29623     189       100       0         0         0         0         0         
2      769       992       29623     290       290       0         0         0         0         0         
3      769       992       29623     290       290       0         0         0         0         0         
2      721       990       29623     290       290       0         0         0         0         0         
3      721       990       29623     290       290       0         0         0         0         0         
3      1001      603       29624     291       189       0         0         0         0         0         
1      137       1054      29624     286       84        0         0         0         0         0         
1      871       1024      29624     291       291       0         0         0         0         0         
1      554       352       29624     189       119       0         0         0         0         0         
2      747       604       29624     290       189       0         0         0         0         0         
2      1001      603       29624     291       189       0         0         0         0         0         
2      546       628       29624     52        189       0         0         0         0         0         
3      546       628       29624     52        189       0         0         0         0         0         
1      664       372       29625     131       119       0         0         0         0         0         
1      714       622       29625     131       280       0         0         0         0         0         
1      527       1227      29625     52        192       0         0         0         0         0         
1      376       557       29626     168       189       0         0         0         0         0         
1      475       641       29626     52        131       0         0         0         0         0         
1      354       511       29626     119       199       0         0         0         0         0         
1      847       1066      29627     291       291       0         0         0         0         0         
1      488       214       29627     199       207       0         0         0         0         0         
1      812       628       29627     290       189       0         0         0         0         0         
1      143       457       29627     54        52        0         0         0         0         0         
1      334       532       29627     119       199       0         0         0         0         0         
1      916       20        29628     291       98        0         0         0         0         0         
1      782       579       29628     291       189       0         0         0         0         0         
1      527       581       29628     52        189       0         0         0         0         0         
2      557       485       29628     189       189       0         0         0         0         0         
2      994       887       29628     84        290       0         0         0         0         0         
1      527       694       29628     52        189       0         0         0         0         0         
1      968       858       29629     290       290       0         0         0         0         0         
1      663       648       29629     131       189       0         0         0         0         0         
1      230       134       29629     266       9         0         0         0         0         0         
1      484       464       29629     189       168       0         0         0         0         0         
3      1214      1136      29629     129       129       0         0         0         0         0         
1      78        431       29629     9         52        0         0         0         0         0         
1      732       698       29629     131       189       0         0         0         0         0         
1      214       140       29630     207       54        0         0         0         0         0         
1      698       903       29630     189       290       0         0         0         0         0         
1      722       968       29630     290       290       0         0         0         0         0         
2      811       859       29630     290       290       0         0         0         0         0         
1      533       387       29630     199       299       0         0         0         0         0         
1      850       1150      29630     291       291       0         0         0         0         0         
3      948       859       29631     290       290       0         0         0         0         0         
1      749       652       29631     290       189       0         0         0         0         0         
2      292       602       29631     87        189       0         0         0         0         0         
3      948       859       29631     290       290       0         0         0         0         0         
1      228       719       29632     266       189       0         0         0         0         0         
1      233       534       29632     206       199       0         0         0         0         0         
1      850       662       29632     291       131       0         0         0         0         0         
2      101       233       29633     57        206       0         0         0         0         0         
3      556       801       29633     199       291       0         0         0         0         0         
3      556       801       29633     199       291       0         0         0         0         0         
1      700       747       29633     290       290       0         0         0         0         0         
1      527       677       29633     52        189       0         0         0         0         0         
1      667       571       29634     131       52        0         0         0         0         0         
1      535       537       29634     189       189       0         0         0         0         0         
1      1068      939       29634     291       291       0         0         0         0         0         
2      78        191       29634     9         266       0         0         0         0         0         
1      621       416       29634     280       100       0         0         0         0         0         
1      862       773       29635     290       290       0         0         0         0         0         
1      78        189       29635     9         286       0         0         0         0         0         
1      511       695       29636     199       189       0         0         0         0         0         
3      925       946       29636     290       290       0         0         0         0         0         
1      559       481       29636     189       189       0         0         0         0         0         
2      698       460       29636     189       189       0         0         0         0         0         
3      947       602       29636     290       189       0         0         0         0         0         
3      947       602       29636     290       189       0         0         0         0         0         
2      949       1033      29636     290       84        0         0         0         0         0         
1      582       546       29636     189       52        0         0         0         0         0         
1      842       860       29636     290       290       0         0         0         0         0         
2      737       722       29637     189       290       0         0         0         0         0         
1      969       558       29637     290       189       0         0         0         0         0         
2      313       481       29637     87        189       0         0         0         0         0         
1      419       552       29637     168       189       0         0         0         0         0         
1      771       747       29637     290       290       0         0         0         0         0         
2      390       276       29637     52        87        0         0         0         0         0         
1      434       534       29638     52        199       0         0         0         0         0         
1      1106      1001      29638     291       291       0         0         0         0         0         
3      1172      606       29638     129       189       0         0         0         0         0         
3      1172      606       29638     129       189       0         0         0         0         0         
1      893       1045      29638     291       291       0         0         0         0         0         
1      1211      508       29638     129       199       0         0         0         0         0         
1      1107      1066      29638     291       291       0         0         0         0         0         
1      1225      651       29639     192       189       0         0         0         0         0         
4      250       333       29639     127       119       0         0         0         0         0         
1      925       670       29639     290       280       0         0         0         0         0         
2      462       526       29639     189       52        0         0         0         0         0         
3      462       526       29639     189       52        0         0         0         0         0         
